p cnf 1106 2935
-129 -126 0
-129 128 0
129 126 -128 0
-130 127 0
-130 128 0
130 -127 -128 0
-131 127 0
-131 -130 0
131 -127 130 0
-132 126 0
-132 -131 0
132 -126 131 0
-133 -129 0
-133 -132 0
133 129 132 0
-134 -124 0
-134 -133 0
134 124 133 0
-135 -125 0
-135 -131 0
135 125 131 0
-136 125 0
-136 -133 0
136 -125 133 0
-137 -135 0
-137 -136 0
137 135 136 0
-138 124 0
-138 -137 0
138 -124 137 0
-139 -134 0
-139 -138 0
139 134 138 0
-140 -122 0
-140 -139 0
140 122 139 0
-141 -123 0
-141 -137 0
141 123 137 0
-142 123 0
-142 -139 0
142 -123 139 0
-143 -141 0
-143 -142 0
143 141 142 0
-144 122 0
-144 -143 0
144 -122 143 0
-145 -140 0
-145 -144 0
145 140 144 0
-146 -120 0
-146 -145 0
146 120 145 0
-147 -121 0
-147 -143 0
147 121 143 0
-148 121 0
-148 -145 0
148 -121 145 0
-149 -147 0
-149 -148 0
149 147 148 0
-150 120 0
-150 -149 0
150 -120 149 0
-151 -146 0
-151 -150 0
151 146 150 0
-152 -118 0
-152 -151 0
152 118 151 0
-153 -119 0
-153 -149 0
153 119 149 0
-154 119 0
-154 -151 0
154 -119 151 0
-155 -153 0
-155 -154 0
155 153 154 0
-156 118 0
-156 -155 0
156 -118 155 0
-157 -152 0
-157 -156 0
157 152 156 0
-158 -116 0
-158 -157 0
158 116 157 0
-159 -117 0
-159 -155 0
159 117 155 0
-160 117 0
-160 -157 0
160 -117 157 0
-161 -159 0
-161 -160 0
161 159 160 0
-162 116 0
-162 -161 0
162 -116 161 0
-163 -158 0
-163 -162 0
163 158 162 0
-164 -114 0
-164 -163 0
164 114 163 0
-165 -115 0
-165 -161 0
165 115 161 0
-166 115 0
-166 -163 0
166 -115 163 0
-167 -165 0
-167 -166 0
167 165 166 0
-168 114 0
-168 -167 0
168 -114 167 0
-169 -164 0
-169 -168 0
169 164 168 0
-170 -112 0
-170 -169 0
170 112 169 0
-171 -113 0
-171 -167 0
171 113 167 0
-172 113 0
-172 -169 0
172 -113 169 0
-173 -171 0
-173 -172 0
173 171 172 0
-174 112 0
-174 -173 0
174 -112 173 0
-175 -170 0
-175 -174 0
175 170 174 0
-176 -110 0
-176 -175 0
176 110 175 0
-177 -111 0
-177 -173 0
177 111 173 0
-178 111 0
-178 -175 0
178 -111 175 0
-179 -177 0
-179 -178 0
179 177 178 0
-180 110 0
-180 -179 0
180 -110 179 0
-181 -176 0
-181 -180 0
181 176 180 0
-182 -108 0
-182 -181 0
182 108 181 0
-183 -109 0
-183 -179 0
183 109 179 0
-184 109 0
-184 -181 0
184 -109 181 0
-185 -183 0
-185 -184 0
185 183 184 0
-186 108 0
-186 -185 0
186 -108 185 0
-187 -182 0
-187 -186 0
187 182 186 0
-188 -106 0
-188 -187 0
188 106 187 0
-189 -107 0
-189 -185 0
189 107 185 0
-190 107 0
-190 -187 0
190 -107 187 0
-191 -189 0
-191 -190 0
191 189 190 0
-192 106 0
-192 -191 0
192 -106 191 0
-193 -188 0
-193 -192 0
193 188 192 0
-194 -104 0
-194 -193 0
194 104 193 0
-195 -105 0
-195 -191 0
195 105 191 0
-196 105 0
-196 -193 0
196 -105 193 0
-197 -195 0
-197 -196 0
197 195 196 0
-198 104 0
-198 -197 0
198 -104 197 0
-199 -194 0
-199 -198 0
199 194 198 0
-200 -102 0
-200 -199 0
200 102 199 0
-201 -103 0
-201 -197 0
201 103 197 0
-202 103 0
-202 -199 0
202 -103 199 0
-203 -201 0
-203 -202 0
203 201 202 0
-204 102 0
-204 -203 0
204 -102 203 0
-205 -200 0
-205 -204 0
205 200 204 0
-206 -100 0
-206 -205 0
206 100 205 0
-207 -101 0
-207 -203 0
207 101 203 0
-208 101 0
-208 -205 0
208 -101 205 0
-209 -207 0
-209 -208 0
209 207 208 0
-210 100 0
-210 -209 0
210 -100 209 0
-211 -206 0
-211 -210 0
211 206 210 0
-212 -98 0
-212 -211 0
212 98 211 0
-213 -99 0
-213 -209 0
213 99 209 0
-214 99 0
-214 -211 0
214 -99 211 0
-215 -213 0
-215 -214 0
215 213 214 0
-216 98 0
-216 -215 0
216 -98 215 0
-217 -212 0
-217 -216 0
217 212 216 0
-218 -96 0
-218 -217 0
218 96 217 0
-219 -97 0
-219 -215 0
219 97 215 0
-220 97 0
-220 -217 0
220 -97 217 0
-221 -219 0
-221 -220 0
221 219 220 0
-222 96 0
-222 -221 0
222 -96 221 0
-223 -218 0
-223 -222 0
223 218 222 0
-224 -94 0
-224 -223 0
224 94 223 0
-225 -95 0
-225 -221 0
225 95 221 0
-226 95 0
-226 -223 0
226 -95 223 0
-227 -225 0
-227 -226 0
227 225 226 0
-228 94 0
-228 -227 0
228 -94 227 0
-229 -224 0
-229 -228 0
229 224 228 0
-230 -92 0
-230 -229 0
230 92 229 0
-231 -93 0
-231 -227 0
231 93 227 0
-232 93 0
-232 -229 0
232 -93 229 0
-233 -231 0
-233 -232 0
233 231 232 0
-234 92 0
-234 -233 0
234 -92 233 0
-235 -230 0
-235 -234 0
235 230 234 0
-236 -90 0
-236 -235 0
236 90 235 0
-237 -91 0
-237 -233 0
237 91 233 0
-238 91 0
-238 -235 0
238 -91 235 0
-239 -237 0
-239 -238 0
239 237 238 0
-240 90 0
-240 -239 0
240 -90 239 0
-241 -236 0
-241 -240 0
241 236 240 0
-242 -88 0
-242 -241 0
242 88 241 0
-243 -89 0
-243 -239 0
243 89 239 0
-244 89 0
-244 -241 0
244 -89 241 0
-245 -243 0
-245 -244 0
245 243 244 0
-246 88 0
-246 -245 0
246 -88 245 0
-247 -242 0
-247 -246 0
247 242 246 0
-248 -86 0
-248 -247 0
248 86 247 0
-249 -87 0
-249 -245 0
249 87 245 0
-250 87 0
-250 -247 0
250 -87 247 0
-251 -249 0
-251 -250 0
251 249 250 0
-252 86 0
-252 -251 0
252 -86 251 0
-253 -248 0
-253 -252 0
253 248 252 0
-254 -84 0
-254 -253 0
254 84 253 0
-255 -85 0
-255 -251 0
255 85 251 0
-256 85 0
-256 -253 0
256 -85 253 0
-257 -255 0
-257 -256 0
257 255 256 0
-258 84 0
-258 -257 0
258 -84 257 0
-259 -254 0
-259 -258 0
259 254 258 0
-260 -82 0
-260 -259 0
260 82 259 0
-261 -83 0
-261 -257 0
261 83 257 0
-262 83 0
-262 -259 0
262 -83 259 0
-263 -261 0
-263 -262 0
263 261 262 0
-264 82 0
-264 -263 0
264 -82 263 0
-265 -260 0
-265 -264 0
265 260 264 0
-266 -80 0
-266 -265 0
266 80 265 0
-267 -81 0
-267 -263 0
267 81 263 0
-268 81 0
-268 -265 0
268 -81 265 0
-269 -267 0
-269 -268 0
269 267 268 0
-270 80 0
-270 -269 0
270 -80 269 0
-271 -266 0
-271 -270 0
271 266 270 0
-272 -78 0
-272 -271 0
272 78 271 0
-273 -79 0
-273 -269 0
273 79 269 0
-274 79 0
-274 -271 0
274 -79 271 0
-275 -273 0
-275 -274 0
275 273 274 0
-276 78 0
-276 -275 0
276 -78 275 0
-277 -272 0
-277 -276 0
277 272 276 0
-278 -76 0
-278 -277 0
278 76 277 0
-279 -77 0
-279 -275 0
279 77 275 0
-280 77 0
-280 -277 0
280 -77 277 0
-281 -279 0
-281 -280 0
281 279 280 0
-282 76 0
-282 -281 0
282 -76 281 0
-283 -278 0
-283 -282 0
283 278 282 0
-284 -74 0
-284 -283 0
284 74 283 0
-285 -75 0
-285 -281 0
285 75 281 0
-286 75 0
-286 -283 0
286 -75 283 0
-287 -285 0
-287 -286 0
287 285 286 0
-288 74 0
-288 -287 0
288 -74 287 0
-289 -284 0
-289 -288 0
289 284 288 0
-290 -72 0
-290 -289 0
290 72 289 0
-291 -73 0
-291 -287 0
291 73 287 0
-292 73 0
-292 -289 0
292 -73 289 0
-293 -291 0
-293 -292 0
293 291 292 0
-294 72 0
-294 -293 0
294 -72 293 0
-295 -290 0
-295 -294 0
295 290 294 0
-296 -70 0
-296 -295 0
296 70 295 0
-297 -71 0
-297 -293 0
297 71 293 0
-298 71 0
-298 -295 0
298 -71 295 0
-299 -297 0
-299 -298 0
299 297 298 0
-300 70 0
-300 -299 0
300 -70 299 0
-301 -296 0
-301 -300 0
301 296 300 0
-302 -68 0
-302 -301 0
302 68 301 0
-303 -69 0
-303 -299 0
303 69 299 0
-304 69 0
-304 -301 0
304 -69 301 0
-305 -303 0
-305 -304 0
305 303 304 0
-306 68 0
-306 -305 0
306 -68 305 0
-307 -302 0
-307 -306 0
307 302 306 0
-308 -66 0
-308 -307 0
308 66 307 0
-309 -67 0
-309 -305 0
309 67 305 0
-310 67 0
-310 -307 0
310 -67 307 0
-311 -309 0
-311 -310 0
311 309 310 0
-312 66 0
-312 -311 0
312 -66 311 0
-313 -308 0
-313 -312 0
313 308 312 0
-314 -64 0
-314 -313 0
314 64 313 0
-315 -65 0
-315 -311 0
315 65 311 0
-316 65 0
-316 -313 0
316 -65 313 0
-317 -315 0
-317 -316 0
317 315 316 0
-318 64 0
-318 -317 0
318 -64 317 0
-319 -314 0
-319 -318 0
319 314 318 0
-320 -62 0
-320 -319 0
320 62 319 0
-321 -63 0
-321 -317 0
321 63 317 0
-322 63 0
-322 -319 0
322 -63 319 0
-323 -321 0
-323 -322 0
323 321 322 0
-324 62 0
-324 -323 0
324 -62 323 0
-325 -320 0
-325 -324 0
325 320 324 0
-326 -60 0
-326 -325 0
326 60 325 0
-327 -61 0
-327 -323 0
327 61 323 0
-328 61 0
-328 -325 0
328 -61 325 0
-329 -327 0
-329 -328 0
329 327 328 0
-330 60 0
-330 -329 0
330 -60 329 0
-331 -326 0
-331 -330 0
331 326 330 0
-332 -58 0
-332 -331 0
332 58 331 0
-333 -59 0
-333 -329 0
333 59 329 0
-334 59 0
-334 -331 0
334 -59 331 0
-335 -333 0
-335 -334 0
335 333 334 0
-336 58 0
-336 -335 0
336 -58 335 0
-337 -332 0
-337 -336 0
337 332 336 0
-338 -56 0
-338 -337 0
338 56 337 0
-339 -57 0
-339 -335 0
339 57 335 0
-340 57 0
-340 -337 0
340 -57 337 0
-341 -339 0
-341 -340 0
341 339 340 0
-342 56 0
-342 -341 0
342 -56 341 0
-343 -338 0
-343 -342 0
343 338 342 0
-344 -54 0
-344 -343 0
344 54 343 0
-345 -55 0
-345 -341 0
345 55 341 0
-346 55 0
-346 -343 0
346 -55 343 0
-347 -345 0
-347 -346 0
347 345 346 0
-348 54 0
-348 -347 0
348 -54 347 0
-349 -344 0
-349 -348 0
349 344 348 0
-350 -52 0
-350 -349 0
350 52 349 0
-351 -53 0
-351 -347 0
351 53 347 0
-352 53 0
-352 -349 0
352 -53 349 0
-353 -351 0
-353 -352 0
353 351 352 0
-354 52 0
-354 -353 0
354 -52 353 0
-355 -350 0
-355 -354 0
355 350 354 0
-356 -50 0
-356 -355 0
356 50 355 0
-357 -51 0
-357 -353 0
357 51 353 0
-358 51 0
-358 -355 0
358 -51 355 0
-359 -357 0
-359 -358 0
359 357 358 0
-360 50 0
-360 -359 0
360 -50 359 0
-361 -356 0
-361 -360 0
361 356 360 0
-362 -48 0
-362 -361 0
362 48 361 0
-363 -49 0
-363 -359 0
363 49 359 0
-364 49 0
-364 -361 0
364 -49 361 0
-365 -363 0
-365 -364 0
365 363 364 0
-366 48 0
-366 -365 0
366 -48 365 0
-367 -362 0
-367 -366 0
367 362 366 0
-368 -46 0
-368 -367 0
368 46 367 0
-369 -47 0
-369 -365 0
369 47 365 0
-370 47 0
-370 -367 0
370 -47 367 0
-371 -369 0
-371 -370 0
371 369 370 0
-372 46 0
-372 -371 0
372 -46 371 0
-373 -368 0
-373 -372 0
373 368 372 0
-374 -44 0
-374 -373 0
374 44 373 0
-375 -45 0
-375 -371 0
375 45 371 0
-376 45 0
-376 -373 0
376 -45 373 0
-377 -375 0
-377 -376 0
377 375 376 0
-378 44 0
-378 -377 0
378 -44 377 0
-379 -374 0
-379 -378 0
379 374 378 0
-380 -42 0
-380 -379 0
380 42 379 0
-381 -43 0
-381 -377 0
381 43 377 0
-382 43 0
-382 -379 0
382 -43 379 0
-383 -381 0
-383 -382 0
383 381 382 0
-384 42 0
-384 -383 0
384 -42 383 0
-385 -380 0
-385 -384 0
385 380 384 0
-386 -40 0
-386 -385 0
386 40 385 0
-387 -41 0
-387 -383 0
387 41 383 0
-388 41 0
-388 -385 0
388 -41 385 0
-389 -387 0
-389 -388 0
389 387 388 0
-390 40 0
-390 -389 0
390 -40 389 0
-391 -386 0
-391 -390 0
391 386 390 0
-392 -38 0
-392 -391 0
392 38 391 0
-393 -39 0
-393 -389 0
393 39 389 0
-394 39 0
-394 -391 0
394 -39 391 0
-395 -393 0
-395 -394 0
395 393 394 0
-396 38 0
-396 -395 0
396 -38 395 0
-397 -392 0
-397 -396 0
397 392 396 0
-398 -36 0
-398 -397 0
398 36 397 0
-399 -37 0
-399 -395 0
399 37 395 0
-400 37 0
-400 -397 0
400 -37 397 0
-401 -399 0
-401 -400 0
401 399 400 0
-402 36 0
-402 -401 0
402 -36 401 0
-403 -398 0
-403 -402 0
403 398 402 0
-404 -34 0
-404 -403 0
404 34 403 0
-405 -35 0
-405 -401 0
405 35 401 0
-406 35 0
-406 -403 0
406 -35 403 0
-407 -405 0
-407 -406 0
407 405 406 0
-408 34 0
-408 -407 0
408 -34 407 0
-409 -404 0
-409 -408 0
409 404 408 0
-410 -32 0
-410 -409 0
410 32 409 0
-411 -33 0
-411 -407 0
411 33 407 0
-412 33 0
-412 -409 0
412 -33 409 0
-413 -411 0
-413 -412 0
413 411 412 0
-414 32 0
-414 -413 0
414 -32 413 0
-415 -410 0
-415 -414 0
415 410 414 0
-416 -30 0
-416 -415 0
416 30 415 0
-417 -31 0
-417 -413 0
417 31 413 0
-418 31 0
-418 -415 0
418 -31 415 0
-419 -417 0
-419 -418 0
419 417 418 0
-420 30 0
-420 -419 0
420 -30 419 0
-421 -416 0
-421 -420 0
421 416 420 0
-422 -28 0
-422 -421 0
422 28 421 0
-423 -29 0
-423 -419 0
423 29 419 0
-424 29 0
-424 -421 0
424 -29 421 0
-425 -423 0
-425 -424 0
425 423 424 0
-426 28 0
-426 -425 0
426 -28 425 0
-427 -422 0
-427 -426 0
427 422 426 0
-428 -26 0
-428 -427 0
428 26 427 0
-429 -27 0
-429 -425 0
429 27 425 0
-430 27 0
-430 -427 0
430 -27 427 0
-431 -429 0
-431 -430 0
431 429 430 0
-432 26 0
-432 -431 0
432 -26 431 0
-433 -428 0
-433 -432 0
433 428 432 0
-434 -24 0
-434 -433 0
434 24 433 0
-435 -25 0
-435 -431 0
435 25 431 0
-436 25 0
-436 -433 0
436 -25 433 0
-437 -435 0
-437 -436 0
437 435 436 0
-438 24 0
-438 -437 0
438 -24 437 0
-439 -434 0
-439 -438 0
439 434 438 0
-440 -22 0
-440 -439 0
440 22 439 0
-441 -23 0
-441 -437 0
441 23 437 0
-442 23 0
-442 -439 0
442 -23 439 0
-443 -441 0
-443 -442 0
443 441 442 0
-444 22 0
-444 -443 0
444 -22 443 0
-445 -440 0
-445 -444 0
445 440 444 0
-446 -20 0
-446 -445 0
446 20 445 0
-447 -21 0
-447 -443 0
447 21 443 0
-448 21 0
-448 -445 0
448 -21 445 0
-449 -447 0
-449 -448 0
449 447 448 0
-450 20 0
-450 -449 0
450 -20 449 0
-451 -446 0
-451 -450 0
451 446 450 0
-452 -18 0
-452 -451 0
452 18 451 0
-453 -19 0
-453 -449 0
453 19 449 0
-454 19 0
-454 -451 0
454 -19 451 0
-455 -453 0
-455 -454 0
455 453 454 0
-456 18 0
-456 -455 0
456 -18 455 0
-457 -452 0
-457 -456 0
457 452 456 0
-458 -16 0
-458 -457 0
458 16 457 0
-459 -17 0
-459 -455 0
459 17 455 0
-460 17 0
-460 -457 0
460 -17 457 0
-461 -459 0
-461 -460 0
461 459 460 0
-462 16 0
-462 -461 0
462 -16 461 0
-463 -458 0
-463 -462 0
463 458 462 0
-464 -14 0
-464 -463 0
464 14 463 0
-465 -15 0
-465 -461 0
465 15 461 0
-466 15 0
-466 -463 0
466 -15 463 0
-467 -465 0
-467 -466 0
467 465 466 0
-468 14 0
-468 -467 0
468 -14 467 0
-469 -464 0
-469 -468 0
469 464 468 0
-470 -12 0
-470 -469 0
470 12 469 0
-471 -13 0
-471 -467 0
471 13 467 0
-472 13 0
-472 -469 0
472 -13 469 0
-473 -471 0
-473 -472 0
473 471 472 0
-474 12 0
-474 -473 0
474 -12 473 0
-475 -470 0
-475 -474 0
475 470 474 0
-476 -10 0
-476 -475 0
476 10 475 0
-477 -11 0
-477 -473 0
477 11 473 0
-478 11 0
-478 -475 0
478 -11 475 0
-479 -477 0
-479 -478 0
479 477 478 0
-480 10 0
-480 -479 0
480 -10 479 0
-481 -476 0
-481 -480 0
481 476 480 0
-482 -8 0
-482 -481 0
482 8 481 0
-483 -9 0
-483 -479 0
483 9 479 0
-484 9 0
-484 -481 0
484 -9 481 0
-485 -483 0
-485 -484 0
485 483 484 0
-486 8 0
-486 -485 0
486 -8 485 0
-487 -482 0
-487 -486 0
487 482 486 0
-488 -6 0
-488 -487 0
488 6 487 0
-489 -7 0
-489 -485 0
489 7 485 0
-490 7 0
-490 -487 0
490 -7 487 0
-491 -489 0
-491 -490 0
491 489 490 0
-492 6 0
-492 -491 0
492 -6 491 0
-493 -488 0
-493 -492 0
493 488 492 0
-494 -4 0
-494 -493 0
494 4 493 0
-495 -5 0
-495 -491 0
495 5 491 0
-496 5 0
-496 -493 0
496 -5 493 0
-497 -495 0
-497 -496 0
497 495 496 0
-498 4 0
-498 -497 0
498 -4 497 0
-499 -494 0
-499 -498 0
499 494 498 0
-500 2 0
-500 -3 0
500 -2 3 0
-501 499 0
-501 -500 0
501 -499 500 0
-502 497 0
-502 500 0
502 -497 -500 0
-503 -501 0
-503 -502 0
503 501 502 0
-504 -127 0
-504 128 0
504 127 -128 0
-505 -127 0
-505 -504 0
505 127 504 0
-506 -125 0
-506 -126 0
506 125 126 0
-507 -123 0
-507 -124 0
507 123 124 0
-508 122 0
-508 507 0
508 -122 -507 0
-509 506 0
-509 -508 0
509 -506 508 0
-510 505 0
-510 -509 0
510 -505 509 0
-511 -121 0
-511 -510 0
511 121 510 0
-512 506 0
-512 -507 0
512 -506 507 0
-513 505 0
-513 -512 0
513 -505 512 0
-514 121 0
-514 -513 0
514 -121 513 0
-515 -511 0
-515 -514 0
515 511 514 0
-516 -119 0
-516 -120 0
516 119 120 0
-517 515 0
-517 -516 0
517 -515 516 0
-518 513 0
-518 516 0
518 -513 -516 0
-519 -517 0
-519 -518 0
519 517 518 0
-520 -117 0
-520 -118 0
520 117 118 0
-521 519 0
-521 -520 0
521 -519 520 0
-522 -515 0
-522 520 0
522 515 -520 0
-523 -521 0
-523 -522 0
523 521 522 0
-524 -115 0
-524 -116 0
524 115 116 0
-525 523 0
-525 -524 0
525 -523 524 0
-526 -519 0
-526 524 0
526 519 -524 0
-527 -525 0
-527 -526 0
527 525 526 0
-528 -113 0
-528 -114 0
528 113 114 0
-529 527 0
-529 -528 0
529 -527 528 0
-530 -523 0
-530 528 0
530 523 -528 0
-531 -529 0
-531 -530 0
531 529 530 0
-532 -111 0
-532 -112 0
532 111 112 0
-533 531 0
-533 -532 0
533 -531 532 0
-534 -527 0
-534 532 0
534 527 -532 0
-535 -533 0
-535 -534 0
535 533 534 0
-536 -109 0
-536 -110 0
536 109 110 0
-537 535 0
-537 -536 0
537 -535 536 0
-538 -531 0
-538 536 0
538 531 -536 0
-539 -537 0
-539 -538 0
539 537 538 0
-540 -107 0
-540 -108 0
540 107 108 0
-541 539 0
-541 -540 0
541 -539 540 0
-542 -535 0
-542 540 0
542 535 -540 0
-543 -541 0
-543 -542 0
543 541 542 0
-544 -105 0
-544 -106 0
544 105 106 0
-545 543 0
-545 -544 0
545 -543 544 0
-546 -539 0
-546 544 0
546 539 -544 0
-547 -545 0
-547 -546 0
547 545 546 0
-548 -103 0
-548 -104 0
548 103 104 0
-549 547 0
-549 -548 0
549 -547 548 0
-550 -543 0
-550 548 0
550 543 -548 0
-551 -549 0
-551 -550 0
551 549 550 0
-552 -101 0
-552 -102 0
552 101 102 0
-553 551 0
-553 -552 0
553 -551 552 0
-554 -547 0
-554 552 0
554 547 -552 0
-555 -553 0
-555 -554 0
555 553 554 0
-556 -99 0
-556 -100 0
556 99 100 0
-557 555 0
-557 -556 0
557 -555 556 0
-558 -551 0
-558 556 0
558 551 -556 0
-559 -557 0
-559 -558 0
559 557 558 0
-560 -97 0
-560 -98 0
560 97 98 0
-561 559 0
-561 -560 0
561 -559 560 0
-562 -555 0
-562 560 0
562 555 -560 0
-563 -561 0
-563 -562 0
563 561 562 0
-564 -95 0
-564 -96 0
564 95 96 0
-565 563 0
-565 -564 0
565 -563 564 0
-566 -559 0
-566 564 0
566 559 -564 0
-567 -565 0
-567 -566 0
567 565 566 0
-568 -93 0
-568 -94 0
568 93 94 0
-569 567 0
-569 -568 0
569 -567 568 0
-570 -563 0
-570 568 0
570 563 -568 0
-571 -569 0
-571 -570 0
571 569 570 0
-572 -91 0
-572 -92 0
572 91 92 0
-573 571 0
-573 -572 0
573 -571 572 0
-574 -567 0
-574 572 0
574 567 -572 0
-575 -573 0
-575 -574 0
575 573 574 0
-576 -89 0
-576 -90 0
576 89 90 0
-577 575 0
-577 -576 0
577 -575 576 0
-578 -571 0
-578 576 0
578 571 -576 0
-579 -577 0
-579 -578 0
579 577 578 0
-580 -87 0
-580 -88 0
580 87 88 0
-581 579 0
-581 -580 0
581 -579 580 0
-582 -575 0
-582 580 0
582 575 -580 0
-583 -581 0
-583 -582 0
583 581 582 0
-584 -85 0
-584 -86 0
584 85 86 0
-585 583 0
-585 -584 0
585 -583 584 0
-586 -579 0
-586 584 0
586 579 -584 0
-587 -585 0
-587 -586 0
587 585 586 0
-588 -83 0
-588 -84 0
588 83 84 0
-589 587 0
-589 -588 0
589 -587 588 0
-590 -583 0
-590 588 0
590 583 -588 0
-591 -589 0
-591 -590 0
591 589 590 0
-592 -81 0
-592 -82 0
592 81 82 0
-593 591 0
-593 -592 0
593 -591 592 0
-594 -587 0
-594 592 0
594 587 -592 0
-595 -593 0
-595 -594 0
595 593 594 0
-596 -79 0
-596 -80 0
596 79 80 0
-597 595 0
-597 -596 0
597 -595 596 0
-598 -591 0
-598 596 0
598 591 -596 0
-599 -597 0
-599 -598 0
599 597 598 0
-600 -77 0
-600 -78 0
600 77 78 0
-601 599 0
-601 -600 0
601 -599 600 0
-602 -595 0
-602 600 0
602 595 -600 0
-603 -601 0
-603 -602 0
603 601 602 0
-604 -75 0
-604 -76 0
604 75 76 0
-605 603 0
-605 -604 0
605 -603 604 0
-606 -599 0
-606 604 0
606 599 -604 0
-607 -605 0
-607 -606 0
607 605 606 0
-608 -73 0
-608 -74 0
608 73 74 0
-609 607 0
-609 -608 0
609 -607 608 0
-610 -603 0
-610 608 0
610 603 -608 0
-611 -609 0
-611 -610 0
611 609 610 0
-612 -71 0
-612 -72 0
612 71 72 0
-613 611 0
-613 -612 0
613 -611 612 0
-614 -607 0
-614 612 0
614 607 -612 0
-615 -613 0
-615 -614 0
615 613 614 0
-616 -69 0
-616 -70 0
616 69 70 0
-617 615 0
-617 -616 0
617 -615 616 0
-618 -611 0
-618 616 0
618 611 -616 0
-619 -617 0
-619 -618 0
619 617 618 0
-620 -67 0
-620 -68 0
620 67 68 0
-621 619 0
-621 -620 0
621 -619 620 0
-622 -615 0
-622 620 0
622 615 -620 0
-623 -621 0
-623 -622 0
623 621 622 0
-624 -65 0
-624 -66 0
624 65 66 0
-625 623 0
-625 -624 0
625 -623 624 0
-626 -619 0
-626 624 0
626 619 -624 0
-627 -625 0
-627 -626 0
627 625 626 0
-628 -63 0
-628 -64 0
628 63 64 0
-629 627 0
-629 -628 0
629 -627 628 0
-630 -623 0
-630 628 0
630 623 -628 0
-631 -629 0
-631 -630 0
631 629 630 0
-632 -61 0
-632 -62 0
632 61 62 0
-633 631 0
-633 -632 0
633 -631 632 0
-634 -627 0
-634 632 0
634 627 -632 0
-635 -633 0
-635 -634 0
635 633 634 0
-636 -59 0
-636 -60 0
636 59 60 0
-637 635 0
-637 -636 0
637 -635 636 0
-638 -631 0
-638 636 0
638 631 -636 0
-639 -637 0
-639 -638 0
639 637 638 0
-640 -57 0
-640 -58 0
640 57 58 0
-641 639 0
-641 -640 0
641 -639 640 0
-642 -635 0
-642 640 0
642 635 -640 0
-643 -641 0
-643 -642 0
643 641 642 0
-644 -55 0
-644 -56 0
644 55 56 0
-645 643 0
-645 -644 0
645 -643 644 0
-646 -639 0
-646 644 0
646 639 -644 0
-647 -645 0
-647 -646 0
647 645 646 0
-648 -53 0
-648 -54 0
648 53 54 0
-649 647 0
-649 -648 0
649 -647 648 0
-650 -643 0
-650 648 0
650 643 -648 0
-651 -649 0
-651 -650 0
651 649 650 0
-652 -51 0
-652 -52 0
652 51 52 0
-653 651 0
-653 -652 0
653 -651 652 0
-654 -647 0
-654 652 0
654 647 -652 0
-655 -653 0
-655 -654 0
655 653 654 0
-656 -49 0
-656 -50 0
656 49 50 0
-657 655 0
-657 -656 0
657 -655 656 0
-658 -651 0
-658 656 0
658 651 -656 0
-659 -657 0
-659 -658 0
659 657 658 0
-660 -47 0
-660 -48 0
660 47 48 0
-661 659 0
-661 -660 0
661 -659 660 0
-662 -655 0
-662 660 0
662 655 -660 0
-663 -661 0
-663 -662 0
663 661 662 0
-664 -45 0
-664 -46 0
664 45 46 0
-665 663 0
-665 -664 0
665 -663 664 0
-666 -659 0
-666 664 0
666 659 -664 0
-667 -665 0
-667 -666 0
667 665 666 0
-668 -43 0
-668 -44 0
668 43 44 0
-669 667 0
-669 -668 0
669 -667 668 0
-670 -663 0
-670 668 0
670 663 -668 0
-671 -669 0
-671 -670 0
671 669 670 0
-672 -41 0
-672 -42 0
672 41 42 0
-673 671 0
-673 -672 0
673 -671 672 0
-674 -667 0
-674 672 0
674 667 -672 0
-675 -673 0
-675 -674 0
675 673 674 0
-676 -39 0
-676 -40 0
676 39 40 0
-677 675 0
-677 -676 0
677 -675 676 0
-678 -671 0
-678 676 0
678 671 -676 0
-679 -677 0
-679 -678 0
679 677 678 0
-680 -37 0
-680 -38 0
680 37 38 0
-681 679 0
-681 -680 0
681 -679 680 0
-682 -675 0
-682 680 0
682 675 -680 0
-683 -681 0
-683 -682 0
683 681 682 0
-684 -35 0
-684 -36 0
684 35 36 0
-685 683 0
-685 -684 0
685 -683 684 0
-686 -679 0
-686 684 0
686 679 -684 0
-687 -685 0
-687 -686 0
687 685 686 0
-688 -33 0
-688 -34 0
688 33 34 0
-689 687 0
-689 -688 0
689 -687 688 0
-690 -683 0
-690 688 0
690 683 -688 0
-691 -689 0
-691 -690 0
691 689 690 0
-692 -31 0
-692 -32 0
692 31 32 0
-693 691 0
-693 -692 0
693 -691 692 0
-694 -687 0
-694 692 0
694 687 -692 0
-695 -693 0
-695 -694 0
695 693 694 0
-696 -29 0
-696 -30 0
696 29 30 0
-697 695 0
-697 -696 0
697 -695 696 0
-698 -691 0
-698 696 0
698 691 -696 0
-699 -697 0
-699 -698 0
699 697 698 0
-700 -27 0
-700 -28 0
700 27 28 0
-701 699 0
-701 -700 0
701 -699 700 0
-702 -695 0
-702 700 0
702 695 -700 0
-703 -701 0
-703 -702 0
703 701 702 0
-704 -25 0
-704 -26 0
704 25 26 0
-705 703 0
-705 -704 0
705 -703 704 0
-706 -699 0
-706 704 0
706 699 -704 0
-707 -705 0
-707 -706 0
707 705 706 0
-708 -23 0
-708 -24 0
708 23 24 0
-709 707 0
-709 -708 0
709 -707 708 0
-710 -703 0
-710 708 0
710 703 -708 0
-711 -709 0
-711 -710 0
711 709 710 0
-712 -21 0
-712 -22 0
712 21 22 0
-713 711 0
-713 -712 0
713 -711 712 0
-714 -707 0
-714 712 0
714 707 -712 0
-715 -713 0
-715 -714 0
715 713 714 0
-716 -19 0
-716 -20 0
716 19 20 0
-717 715 0
-717 -716 0
717 -715 716 0
-718 -711 0
-718 716 0
718 711 -716 0
-719 -717 0
-719 -718 0
719 717 718 0
-720 -17 0
-720 -18 0
720 17 18 0
-721 719 0
-721 -720 0
721 -719 720 0
-722 -715 0
-722 720 0
722 715 -720 0
-723 -721 0
-723 -722 0
723 721 722 0
-724 -15 0
-724 -16 0
724 15 16 0
-725 723 0
-725 -724 0
725 -723 724 0
-726 -719 0
-726 724 0
726 719 -724 0
-727 -725 0
-727 -726 0
727 725 726 0
-728 -13 0
-728 -14 0
728 13 14 0
-729 727 0
-729 -728 0
729 -727 728 0
-730 -723 0
-730 728 0
730 723 -728 0
-731 -729 0
-731 -730 0
731 729 730 0
-732 -11 0
-732 -12 0
732 11 12 0
-733 731 0
-733 -732 0
733 -731 732 0
-734 -727 0
-734 732 0
734 727 -732 0
-735 -733 0
-735 -734 0
735 733 734 0
-736 -9 0
-736 -10 0
736 9 10 0
-737 735 0
-737 -736 0
737 -735 736 0
-738 -731 0
-738 736 0
738 731 -736 0
-739 -737 0
-739 -738 0
739 737 738 0
-740 -7 0
-740 -8 0
740 7 8 0
-741 739 0
-741 -740 0
741 -739 740 0
-742 -735 0
-742 740 0
742 735 -740 0
-743 -741 0
-743 -742 0
743 741 742 0
-744 -5 0
-744 -6 0
744 5 6 0
-745 743 0
-745 -744 0
745 -743 744 0
-746 -739 0
-746 744 0
746 739 -744 0
-747 -745 0
-747 -746 0
747 745 746 0
-748 -3 0
-748 -4 0
748 3 4 0
-749 747 0
-749 -748 0
749 -747 748 0
-750 -743 0
-750 748 0
750 743 -748 0
-751 -749 0
-751 -750 0
751 749 750 0
-752 505 0
-752 506 0
752 -505 -506 0
-753 -121 0
-753 -122 0
753 121 122 0
-754 507 0
-754 753 0
754 -507 -753 0
-755 -118 0
-755 516 0
755 118 -516 0
-756 -117 0
-756 755 0
756 117 -755 0
-757 754 0
-757 -756 0
757 -754 756 0
-758 752 0
-758 -757 0
758 -752 757 0
-759 -114 0
-759 -115 0
759 114 115 0
-760 -113 0
-760 759 0
760 113 -759 0
-761 758 0
-761 -760 0
761 -758 760 0
-762 116 0
-762 756 0
762 -116 -756 0
-763 754 0
-763 -762 0
763 -754 762 0
-764 752 0
-764 -763 0
764 -752 763 0
-765 760 0
-765 764 0
765 -760 -764 0
-766 -761 0
-766 -765 0
766 761 765 0
-767 -110 0
-767 532 0
767 110 -532 0
-768 -109 0
-768 767 0
768 109 -767 0
-769 766 0
-769 -768 0
769 -766 768 0
-770 -758 0
-770 768 0
770 758 -768 0
-771 -769 0
-771 -770 0
771 769 770 0
-772 -106 0
-772 540 0
772 106 -540 0
-773 -105 0
-773 772 0
773 105 -772 0
-774 771 0
-774 -773 0
774 -771 773 0
-775 -766 0
-775 773 0
775 766 -773 0
-776 -774 0
-776 -775 0
776 774 775 0
-777 -102 0
-777 548 0
777 102 -548 0
-778 -101 0
-778 777 0
778 101 -777 0
-779 776 0
-779 -778 0
779 -776 778 0
-780 -771 0
-780 778 0
780 771 -778 0
-781 -779 0
-781 -780 0
781 779 780 0
-782 -98 0
-782 556 0
782 98 -556 0
-783 -97 0
-783 782 0
783 97 -782 0
-784 781 0
-784 -783 0
784 -781 783 0
-785 -776 0
-785 783 0
785 776 -783 0
-786 -784 0
-786 -785 0
786 784 785 0
-787 -94 0
-787 564 0
787 94 -564 0
-788 -93 0
-788 787 0
788 93 -787 0
-789 786 0
-789 -788 0
789 -786 788 0
-790 -781 0
-790 788 0
790 781 -788 0
-791 -789 0
-791 -790 0
791 789 790 0
-792 -90 0
-792 572 0
792 90 -572 0
-793 -89 0
-793 792 0
793 89 -792 0
-794 791 0
-794 -793 0
794 -791 793 0
-795 -786 0
-795 793 0
795 786 -793 0
-796 -794 0
-796 -795 0
796 794 795 0
-797 -86 0
-797 580 0
797 86 -580 0
-798 -85 0
-798 797 0
798 85 -797 0
-799 796 0
-799 -798 0
799 -796 798 0
-800 -791 0
-800 798 0
800 791 -798 0
-801 -799 0
-801 -800 0
801 799 800 0
-802 -82 0
-802 588 0
802 82 -588 0
-803 -81 0
-803 802 0
803 81 -802 0
-804 801 0
-804 -803 0
804 -801 803 0
-805 -796 0
-805 803 0
805 796 -803 0
-806 -804 0
-806 -805 0
806 804 805 0
-807 -78 0
-807 596 0
807 78 -596 0
-808 -77 0
-808 807 0
808 77 -807 0
-809 806 0
-809 -808 0
809 -806 808 0
-810 -801 0
-810 808 0
810 801 -808 0
-811 -809 0
-811 -810 0
811 809 810 0
-812 -74 0
-812 604 0
812 74 -604 0
-813 -73 0
-813 812 0
813 73 -812 0
-814 811 0
-814 -813 0
814 -811 813 0
-815 -806 0
-815 813 0
815 806 -813 0
-816 -814 0
-816 -815 0
816 814 815 0
-817 -70 0
-817 612 0
817 70 -612 0
-818 -69 0
-818 817 0
818 69 -817 0
-819 816 0
-819 -818 0
819 -816 818 0
-820 -811 0
-820 818 0
820 811 -818 0
-821 -819 0
-821 -820 0
821 819 820 0
-822 -66 0
-822 620 0
822 66 -620 0
-823 -65 0
-823 822 0
823 65 -822 0
-824 821 0
-824 -823 0
824 -821 823 0
-825 -816 0
-825 823 0
825 816 -823 0
-826 -824 0
-826 -825 0
826 824 825 0
-827 -62 0
-827 628 0
827 62 -628 0
-828 -61 0
-828 827 0
828 61 -827 0
-829 826 0
-829 -828 0
829 -826 828 0
-830 -821 0
-830 828 0
830 821 -828 0
-831 -829 0
-831 -830 0
831 829 830 0
-832 -58 0
-832 636 0
832 58 -636 0
-833 -57 0
-833 832 0
833 57 -832 0
-834 831 0
-834 -833 0
834 -831 833 0
-835 -826 0
-835 833 0
835 826 -833 0
-836 -834 0
-836 -835 0
836 834 835 0
-837 -54 0
-837 644 0
837 54 -644 0
-838 -53 0
-838 837 0
838 53 -837 0
-839 836 0
-839 -838 0
839 -836 838 0
-840 -831 0
-840 838 0
840 831 -838 0
-841 -839 0
-841 -840 0
841 839 840 0
-842 -50 0
-842 652 0
842 50 -652 0
-843 -49 0
-843 842 0
843 49 -842 0
-844 841 0
-844 -843 0
844 -841 843 0
-845 -836 0
-845 843 0
845 836 -843 0
-846 -844 0
-846 -845 0
846 844 845 0
-847 -46 0
-847 660 0
847 46 -660 0
-848 -45 0
-848 847 0
848 45 -847 0
-849 846 0
-849 -848 0
849 -846 848 0
-850 -841 0
-850 848 0
850 841 -848 0
-851 -849 0
-851 -850 0
851 849 850 0
-852 -42 0
-852 668 0
852 42 -668 0
-853 -41 0
-853 852 0
853 41 -852 0
-854 851 0
-854 -853 0
854 -851 853 0
-855 -846 0
-855 853 0
855 846 -853 0
-856 -854 0
-856 -855 0
856 854 855 0
-857 -38 0
-857 676 0
857 38 -676 0
-858 -37 0
-858 857 0
858 37 -857 0
-859 856 0
-859 -858 0
859 -856 858 0
-860 -851 0
-860 858 0
860 851 -858 0
-861 -859 0
-861 -860 0
861 859 860 0
-862 -34 0
-862 684 0
862 34 -684 0
-863 -33 0
-863 862 0
863 33 -862 0
-864 861 0
-864 -863 0
864 -861 863 0
-865 -856 0
-865 863 0
865 856 -863 0
-866 -864 0
-866 -865 0
866 864 865 0
-867 -30 0
-867 692 0
867 30 -692 0
-868 -29 0
-868 867 0
868 29 -867 0
-869 866 0
-869 -868 0
869 -866 868 0
-870 -861 0
-870 868 0
870 861 -868 0
-871 -869 0
-871 -870 0
871 869 870 0
-872 -26 0
-872 700 0
872 26 -700 0
-873 -25 0
-873 872 0
873 25 -872 0
-874 871 0
-874 -873 0
874 -871 873 0
-875 -866 0
-875 873 0
875 866 -873 0
-876 -874 0
-876 -875 0
876 874 875 0
-877 -22 0
-877 708 0
877 22 -708 0
-878 -21 0
-878 877 0
878 21 -877 0
-879 876 0
-879 -878 0
879 -876 878 0
-880 -871 0
-880 878 0
880 871 -878 0
-881 -879 0
-881 -880 0
881 879 880 0
-882 -18 0
-882 716 0
882 18 -716 0
-883 -17 0
-883 882 0
883 17 -882 0
-884 881 0
-884 -883 0
884 -881 883 0
-885 -876 0
-885 883 0
885 876 -883 0
-886 -884 0
-886 -885 0
886 884 885 0
-887 -14 0
-887 724 0
887 14 -724 0
-888 -13 0
-888 887 0
888 13 -887 0
-889 886 0
-889 -888 0
889 -886 888 0
-890 -881 0
-890 888 0
890 881 -888 0
-891 -889 0
-891 -890 0
891 889 890 0
-892 -10 0
-892 732 0
892 10 -732 0
-893 -9 0
-893 892 0
893 9 -892 0
-894 891 0
-894 -893 0
894 -891 893 0
-895 -886 0
-895 893 0
895 886 -893 0
-896 -894 0
-896 -895 0
896 894 895 0
-897 -6 0
-897 740 0
897 6 -740 0
-898 -5 0
-898 897 0
898 5 -897 0
-899 896 0
-899 -898 0
899 -896 898 0
-900 -891 0
-900 898 0
900 891 -898 0
-901 -899 0
-901 -900 0
901 899 900 0
-902 752 0
-902 754 0
902 -752 -754 0
-903 -114 0
-903 524 0
903 114 -524 0
-904 -113 0
-904 756 0
904 113 -756 0
-905 903 0
-905 904 0
905 -903 -904 0
-906 -108 0
-906 768 0
906 108 -768 0
-907 -107 0
-907 906 0
907 107 -906 0
-908 -106 0
-908 907 0
908 106 -907 0
-909 -105 0
-909 908 0
909 105 -908 0
-910 905 0
-910 -909 0
910 -905 909 0
-911 902 0
-911 -910 0
911 -902 910 0
-912 -102 0
-912 -103 0
912 102 103 0
-913 -101 0
-913 912 0
913 101 -912 0
-914 -100 0
-914 913 0
914 100 -913 0
-915 -99 0
-915 914 0
915 99 -914 0
-916 -98 0
-916 915 0
916 98 -915 0
-917 -97 0
-917 916 0
917 97 -916 0
-918 911 0
-918 -917 0
918 -911 917 0
-919 104 0
-919 909 0
919 -104 -909 0
-920 905 0
-920 -919 0
920 -905 919 0
-921 902 0
-921 -920 0
921 -902 920 0
-922 917 0
-922 921 0
922 -917 -921 0
-923 -918 0
-923 -922 0
923 918 922 0
-924 -92 0
-924 788 0
924 92 -788 0
-925 -91 0
-925 924 0
925 91 -924 0
-926 -90 0
-926 925 0
926 90 -925 0
-927 -89 0
-927 926 0
927 89 -926 0
-928 923 0
-928 -927 0
928 -923 927 0
-929 -911 0
-929 927 0
929 911 -927 0
-930 -928 0
-930 -929 0
930 928 929 0
-931 -84 0
-931 798 0
931 84 -798 0
-932 -83 0
-932 931 0
932 83 -931 0
-933 -82 0
-933 932 0
933 82 -932 0
-934 -81 0
-934 933 0
934 81 -933 0
-935 930 0
-935 -934 0
935 -930 934 0
-936 -923 0
-936 934 0
936 923 -934 0
-937 -935 0
-937 -936 0
937 935 936 0
-938 -76 0
-938 808 0
938 76 -808 0
-939 -75 0
-939 938 0
939 75 -938 0
-940 -74 0
-940 939 0
940 74 -939 0
-941 -73 0
-941 940 0
941 73 -940 0
-942 937 0
-942 -941 0
942 -937 941 0
-943 -930 0
-943 941 0
943 930 -941 0
-944 -942 0
-944 -943 0
944 942 943 0
-945 -68 0
-945 818 0
945 68 -818 0
-946 -67 0
-946 945 0
946 67 -945 0
-947 -66 0
-947 946 0
947 66 -946 0
-948 -65 0
-948 947 0
948 65 -947 0
-949 944 0
-949 -948 0
949 -944 948 0
-950 -937 0
-950 948 0
950 937 -948 0
-951 -949 0
-951 -950 0
951 949 950 0
-952 -60 0
-952 828 0
952 60 -828 0
-953 -59 0
-953 952 0
953 59 -952 0
-954 -58 0
-954 953 0
954 58 -953 0
-955 -57 0
-955 954 0
955 57 -954 0
-956 951 0
-956 -955 0
956 -951 955 0
-957 -944 0
-957 955 0
957 944 -955 0
-958 -956 0
-958 -957 0
958 956 957 0
-959 -52 0
-959 838 0
959 52 -838 0
-960 -51 0
-960 959 0
960 51 -959 0
-961 -50 0
-961 960 0
961 50 -960 0
-962 -49 0
-962 961 0
962 49 -961 0
-963 958 0
-963 -962 0
963 -958 962 0
-964 -951 0
-964 962 0
964 951 -962 0
-965 -963 0
-965 -964 0
965 963 964 0
-966 -44 0
-966 848 0
966 44 -848 0
-967 -43 0
-967 966 0
967 43 -966 0
-968 -42 0
-968 967 0
968 42 -967 0
-969 -41 0
-969 968 0
969 41 -968 0
-970 965 0
-970 -969 0
970 -965 969 0
-971 -958 0
-971 969 0
971 958 -969 0
-972 -970 0
-972 -971 0
972 970 971 0
-973 -36 0
-973 858 0
973 36 -858 0
-974 -35 0
-974 973 0
974 35 -973 0
-975 -34 0
-975 974 0
975 34 -974 0
-976 -33 0
-976 975 0
976 33 -975 0
-977 972 0
-977 -976 0
977 -972 976 0
-978 -965 0
-978 976 0
978 965 -976 0
-979 -977 0
-979 -978 0
979 977 978 0
-980 -28 0
-980 868 0
980 28 -868 0
-981 -27 0
-981 980 0
981 27 -980 0
-982 -26 0
-982 981 0
982 26 -981 0
-983 -25 0
-983 982 0
983 25 -982 0
-984 979 0
-984 -983 0
984 -979 983 0
-985 -972 0
-985 983 0
985 972 -983 0
-986 -984 0
-986 -985 0
986 984 985 0
-987 -20 0
-987 878 0
987 20 -878 0
-988 -19 0
-988 987 0
988 19 -987 0
-989 -18 0
-989 988 0
989 18 -988 0
-990 -17 0
-990 989 0
990 17 -989 0
-991 986 0
-991 -990 0
991 -986 990 0
-992 -979 0
-992 990 0
992 979 -990 0
-993 -991 0
-993 -992 0
993 991 992 0
-994 -12 0
-994 888 0
994 12 -888 0
-995 -11 0
-995 994 0
995 11 -994 0
-996 -10 0
-996 995 0
996 10 -995 0
-997 -9 0
-997 996 0
997 9 -996 0
-998 993 0
-998 -997 0
998 -993 997 0
-999 -986 0
-999 997 0
999 986 -997 0
-1000 -998 0
-1000 -999 0
1000 998 999 0
-1001 902 0
-1001 905 0
1001 -902 -905 0
-1002 -100 0
-1002 778 0
1002 100 -778 0
-1003 -99 0
-1003 909 0
1003 99 -909 0
-1004 -98 0
-1004 1003 0
1004 98 -1003 0
-1005 -97 0
-1005 1004 0
1005 97 -1004 0
-1006 1002 0
-1006 1005 0
1006 -1002 -1005 0
-1007 -88 0
-1007 927 0
1007 88 -927 0
-1008 -87 0
-1008 1007 0
1008 87 -1007 0
-1009 -86 0
-1009 1008 0
1009 86 -1008 0
-1010 -85 0
-1010 1009 0
1010 85 -1009 0
-1011 -84 0
-1011 1010 0
1011 84 -1010 0
-1012 -83 0
-1012 1011 0
1012 83 -1011 0
-1013 -82 0
-1013 1012 0
1013 82 -1012 0
-1014 -81 0
-1014 1013 0
1014 81 -1013 0
-1015 1006 0
-1015 -1014 0
1015 -1006 1014 0
-1016 1001 0
-1016 -1015 0
1016 -1001 1015 0
-1017 -78 0
-1017 -79 0
1017 78 79 0
-1018 -77 0
-1018 1017 0
1018 77 -1017 0
-1019 -76 0
-1019 1018 0
1019 76 -1018 0
-1020 -75 0
-1020 1019 0
1020 75 -1019 0
-1021 -74 0
-1021 1020 0
1021 74 -1020 0
-1022 -73 0
-1022 1021 0
1022 73 -1021 0
-1023 -72 0
-1023 1022 0
1023 72 -1022 0
-1024 -71 0
-1024 1023 0
1024 71 -1023 0
-1025 -70 0
-1025 1024 0
1025 70 -1024 0
-1026 -69 0
-1026 1025 0
1026 69 -1025 0
-1027 -68 0
-1027 1026 0
1027 68 -1026 0
-1028 -67 0
-1028 1027 0
1028 67 -1027 0
-1029 -66 0
-1029 1028 0
1029 66 -1028 0
-1030 -65 0
-1030 1029 0
1030 65 -1029 0
-1031 1016 0
-1031 -1030 0
1031 -1016 1030 0
-1032 80 0
-1032 1014 0
1032 -80 -1014 0
-1033 1006 0
-1033 -1032 0
1033 -1006 1032 0
-1034 1001 0
-1034 -1033 0
1034 -1001 1033 0
-1035 1030 0
-1035 1034 0
1035 -1030 -1034 0
-1036 -1031 0
-1036 -1035 0
1036 1031 1035 0
-1037 -56 0
-1037 955 0
1037 56 -955 0
-1038 -55 0
-1038 1037 0
1038 55 -1037 0
-1039 -54 0
-1039 1038 0
1039 54 -1038 0
-1040 -53 0
-1040 1039 0
1040 53 -1039 0
-1041 -52 0
-1041 1040 0
1041 52 -1040 0
-1042 -51 0
-1042 1041 0
1042 51 -1041 0
-1043 -50 0
-1043 1042 0
1043 50 -1042 0
-1044 -49 0
-1044 1043 0
1044 49 -1043 0
-1045 1036 0
-1045 -1044 0
1045 -1036 1044 0
-1046 -1016 0
-1046 1044 0
1046 1016 -1044 0
-1047 -1045 0
-1047 -1046 0
1047 1045 1046 0
-1048 -40 0
-1048 969 0
1048 40 -969 0
-1049 -39 0
-1049 1048 0
1049 39 -1048 0
-1050 -38 0
-1050 1049 0
1050 38 -1049 0
-1051 -37 0
-1051 1050 0
1051 37 -1050 0
-1052 -36 0
-1052 1051 0
1052 36 -1051 0
-1053 -35 0
-1053 1052 0
1053 35 -1052 0
-1054 -34 0
-1054 1053 0
1054 34 -1053 0
-1055 -33 0
-1055 1054 0
1055 33 -1054 0
-1056 1047 0
-1056 -1055 0
1056 -1047 1055 0
-1057 -1036 0
-1057 1055 0
1057 1036 -1055 0
-1058 -1056 0
-1058 -1057 0
1058 1056 1057 0
-1059 -24 0
-1059 983 0
1059 24 -983 0
-1060 -23 0
-1060 1059 0
1060 23 -1059 0
-1061 -22 0
-1061 1060 0
1061 22 -1060 0
-1062 -21 0
-1062 1061 0
1062 21 -1061 0
-1063 -20 0
-1063 1062 0
1063 20 -1062 0
-1064 -19 0
-1064 1063 0
1064 19 -1063 0
-1065 -18 0
-1065 1064 0
1065 18 -1064 0
-1066 -17 0
-1066 1065 0
1066 17 -1065 0
-1067 1058 0
-1067 -1066 0
1067 -1058 1066 0
-1068 -1047 0
-1068 1066 0
1068 1047 -1066 0
-1069 -1067 0
-1069 -1068 0
1069 1067 1068 0
-1070 1001 0
-1070 1006 0
1070 -1001 -1006 0
-1071 -72 0
-1071 941 0
1071 72 -941 0
-1072 -71 0
-1072 1014 0
1072 71 -1014 0
-1073 -70 0
-1073 1072 0
1073 70 -1072 0
-1074 -69 0
-1074 1073 0
1074 69 -1073 0
-1075 -68 0
-1075 1074 0
1075 68 -1074 0
-1076 -67 0
-1076 1075 0
1076 67 -1075 0
-1077 -66 0
-1077 1076 0
1077 66 -1076 0
-1078 -65 0
-1078 1077 0
1078 65 -1077 0
-1079 1071 0
-1079 1078 0
1079 -1071 -1078 0
-1080 -48 0
-1080 1044 0
1080 48 -1044 0
-1081 -47 0
-1081 1080 0
1081 47 -1080 0
-1082 -46 0
-1082 1081 0
1082 46 -1081 0
-1083 -45 0
-1083 1082 0
1083 45 -1082 0
-1084 -44 0
-1084 1083 0
1084 44 -1083 0
-1085 -43 0
-1085 1084 0
1085 43 -1084 0
-1086 -42 0
-1086 1085 0
1086 42 -1085 0
-1087 -41 0
-1087 1086 0
1087 41 -1086 0
-1088 -40 0
-1088 1087 0
1088 40 -1087 0
-1089 -39 0
-1089 1088 0
1089 39 -1088 0
-1090 -38 0
-1090 1089 0
1090 38 -1089 0
-1091 -37 0
-1091 1090 0
1091 37 -1090 0
-1092 -36 0
-1092 1091 0
1092 36 -1091 0
-1093 -35 0
-1093 1092 0
1093 35 -1092 0
-1094 -34 0
-1094 1093 0
1094 34 -1093 0
-1095 -33 0
-1095 1094 0
1095 33 -1094 0
-1096 1079 0
-1096 -1095 0
1096 -1079 1095 0
-1097 1070 0
-1097 -1096 0
1097 -1070 1096 0
-1098 1070 0
-1098 1079 0
1098 -1070 -1079 0
-1099 -1 0
-1099 1098 0
1099 1 -1098 0
-1100 997 0
-1100 1099 0
1100 -997 -1099 0
-1101 -4 0
-1101 1100 0
1101 4 -1100 0
-1102 -3 0
-1102 1101 0
1102 3 -1101 0
-1103 1066 0
-1103 1095 0
1103 -1066 -1095 0
-1104 898 0
-1104 1103 0
1104 -898 -1103 0
-1105 -2 0
-1105 1104 0
1105 2 -1104 0
-1106 1102 0
-1106 1105 0
1106 -1102 -1105 0
-1106 0
